Traveling Salesman Problem/TSP_generados/Aleatorio1620390931_9.tsp
NAME: Aleatorio1620390931_9.tsp
COMMENT: Randomly generated scenario
TYPE: TSP
DIMENSION: 9
EDGE_WEIGHT_TYPE: ATT
NODE_COORD_SECTION
1 15.76 27.44
2 17.31 49.95
3 48.15 40.21
4 31.31 24.6
5 21.5 6.59
6 1.62 19.39
7 34.32 0.4
8 16.16 48.08
9 36.93 47.4
