Traveling Salesman Problem/TSP_generados/Aleatorio1620390931_9.opt.tour
NAME: Aleatorio1620390931_9.opt.tour
COMMENT: Optimal solution for Aleatorio1620390931_9 (157.45025298615843)
TYPE: TOUR
DIMENSION: 9
TOUR_SECTION
1 6 5 7 4 3 9 2 8
-1
EOF
